nohup: ignoring input
2024-07-31 12:56:16.291946: I external/local_xla/xla/tsl/cuda/cudart_stub.cc:32] Could not find cuda drivers on your machine, GPU will not be used.
2024-07-31 12:56:16.297363: I external/local_xla/xla/tsl/cuda/cudart_stub.cc:32] Could not find cuda drivers on your machine, GPU will not be used.
2024-07-31 12:56:16.312624: E external/local_xla/xla/stream_executor/cuda/cuda_fft.cc:485] Unable to register cuFFT factory: Attempting to register factory for plugin cuFFT when one has already been registered
2024-07-31 12:56:16.338411: E external/local_xla/xla/stream_executor/cuda/cuda_dnn.cc:8454] Unable to register cuDNN factory: Attempting to register factory for plugin cuDNN when one has already been registered
2024-07-31 12:56:16.345505: E external/local_xla/xla/stream_executor/cuda/cuda_blas.cc:1452] Unable to register cuBLAS factory: Attempting to register factory for plugin cuBLAS when one has already been registered
2024-07-31 12:56:16.364888: I tensorflow/core/platform/cpu_feature_guard.cc:210] This TensorFlow binary is optimized to use available CPU instructions in performance-critical operations.
To enable the following instructions: AVX2 FMA, in other operations, rebuild TensorFlow with the appropriate compiler flags.
2024-07-31 12:56:21.021393: W tensorflow/compiler/tf2tensorrt/utils/py_utils.cc:38] TF-TRT Warning: Could not find TensorRT
823
no warm start
Set parameter TokenServer to value "vm-gurobi-license.doc.ic.ac.uk"
Gurobi Optimizer version 11.0.2 build v11.0.2rc0 (linux64 - "Ubuntu 22.04.4 LTS")

CPU model: Intel(R) Core(TM) i7-8700 CPU @ 3.20GHz, instruction set [SSE2|AVX|AVX2]
Thread count: 6 physical cores, 12 logical processors, using up to 12 threads

Optimize a model with 1890 rows, 26674 columns and 51850 nonzeros
Model fingerprint: 0xe939fbd3
Model has 180 quadratic constraints
Variable types: 26296 continuous, 378 integer (378 binary)
Coefficient statistics:
  Matrix range     [4e-03, 3e+04]
  QMatrix range    [1e+00, 1e+00]
  QLMatrix range   [1e+00, 2e+00]
  Objective range  [1e+00, 1e+00]
  Bounds range     [1e+00, 1e+00]
  RHS range        [8e+02, 3e+04]
  QRHS range       [1e+00, 1e+00]
Presolve removed 468 rows and 15136 columns
Presolve time: 0.16s
Presolved: 13122 rows, 14508 columns, 80888 nonzeros
Presolved model has 90 quadratic constraint(s)
Presolved model has 2880 bilinear constraint(s)

Solving non-convex MIQCP

Variable types: 14130 continuous, 378 integer (378 binary)
Found heuristic solution: objective 90.0000000

Root relaxation: objective 8.100000e+01, 3911 iterations, 0.10 seconds (0.05 work units)

    Nodes    |    Current Node    |     Objective Bounds      |     Work
 Expl Unexpl |  Obj  Depth IntInf | Incumbent    BestBd   Gap | It/Node Time

     0     0   81.00000    0  122   90.00000   81.00000  10.0%     -    0s
H    0     0                      89.0000001   81.00000  8.99%     -    1s
     0     0   81.00000    0  122   89.00000   81.00000  8.99%     -    1s
H    0     0                      81.4115881   81.00000  0.51%     -    1s
     0     0   81.00000    0  122   81.41159   81.00000  0.51%     -    1s
H    0     0                      81.3953423   81.00000  0.49%     -    1s
     0     0   81.00000    0  122   81.39534   81.00000  0.49%     -    2s
     0     0   81.00000    0  122   81.39534   81.00000  0.49%     -    2s
H    0     0                      81.2329444   81.00000  0.29%     -    2s
     0     0   81.00000    0  122   81.23294   81.00000  0.29%     -    2s
     0     0   81.00000    0  122   81.23294   81.00000  0.29%     -    2s
     0     0   81.00000    0  122   81.23294   81.00000  0.29%     -    2s
H    0     0                      81.0027928   81.00000  0.00%     -    2s

Explored 1 nodes (8573 simplex iterations) in 2.86 seconds (1.19 work units)
Thread count was 12 (of 12 available processors)

Solution count 6: 81.0028 81.2329 81.3953 ... 90

Optimal solution found (tolerance 1.00e-04)
Best objective 8.100279283309e+01, best bound 8.100000000000e+01, gap 0.0034%
WARNING: All log messages before absl::InitializeLog() is called are written to STDERR
I0000 00:00:1722427003.122526 3925860 cuda_executor.cc:1015] successful NUMA node read from SysFS had negative value (-1), but there must be at least one NUMA node, so returning NUMA node zero. See more at https://github.com/torvalds/linux/blob/v6.0/Documentation/ABI/testing/sysfs-bus-pci#L344-L355
2024-07-31 12:56:43.123481: W tensorflow/core/common_runtime/gpu/gpu_device.cc:2343] Cannot dlopen some GPU libraries. Please make sure the missing libraries mentioned above are installed properly if you would like to use GPU. Follow the guide at https://www.tensorflow.org/install/gpu for how to download and setup the required libraries for your platform.
Skipping registering GPU devices...
Epoch 1/10
[1m1/1[0m [32mâ”â”â”â”â”â”â”â”â”â”â”â”â”â”â”â”â”â”â”â”[0m[37m[0m [1m0s[0m 814ms/step - accuracy: 0.1111 - loss: 8.0857[1m1/1[0m [32mâ”â”â”â”â”â”â”â”â”â”â”â”â”â”â”â”â”â”â”â”[0m[37m[0m [1m1s[0m 820ms/step - accuracy: 0.1111 - loss: 8.0857
Epoch 2/10
[1m1/1[0m [32mâ”â”â”â”â”â”â”â”â”â”â”â”â”â”â”â”â”â”â”â”[0m[37m[0m [1m0s[0m 20ms/step - accuracy: 0.2222 - loss: 7.8474[1m1/1[0m [32mâ”â”â”â”â”â”â”â”â”â”â”â”â”â”â”â”â”â”â”â”[0m[37m[0m [1m0s[0m 22ms/step - accuracy: 0.2222 - loss: 7.8474
Epoch 3/10
[1m1/1[0m [32mâ”â”â”â”â”â”â”â”â”â”â”â”â”â”â”â”â”â”â”â”[0m[37m[0m [1m0s[0m 23ms/step - accuracy: 0.4444 - loss: 7.7508[1m1/1[0m [32mâ”â”â”â”â”â”â”â”â”â”â”â”â”â”â”â”â”â”â”â”[0m[37m[0m [1m0s[0m 25ms/step - accuracy: 0.4444 - loss: 7.7508
Epoch 4/10
[1m1/1[0m [32mâ”â”â”â”â”â”â”â”â”â”â”â”â”â”â”â”â”â”â”â”[0m[37m[0m [1m0s[0m 22ms/step - accuracy: 0.5556 - loss: 7.6768[1m1/1[0m [32mâ”â”â”â”â”â”â”â”â”â”â”â”â”â”â”â”â”â”â”â”[0m[37m[0m [1m0s[0m 24ms/step - accuracy: 0.5556 - loss: 7.6768
Epoch 5/10
[1m1/1[0m [32mâ”â”â”â”â”â”â”â”â”â”â”â”â”â”â”â”â”â”â”â”[0m[37m[0m [1m0s[0m 23ms/step - accuracy: 0.5556 - loss: 7.6096[1m1/1[0m [32mâ”â”â”â”â”â”â”â”â”â”â”â”â”â”â”â”â”â”â”â”[0m[37m[0m [1m0s[0m 25ms/step - accuracy: 0.5556 - loss: 7.6096
Epoch 6/10
[1m1/1[0m [32mâ”â”â”â”â”â”â”â”â”â”â”â”â”â”â”â”â”â”â”â”[0m[37m[0m [1m0s[0m 23ms/step - accuracy: 0.5556 - loss: 7.5482[1m1/1[0m [32mâ”â”â”â”â”â”â”â”â”â”â”â”â”â”â”â”â”â”â”â”[0m[37m[0m [1m0s[0m 25ms/step - accuracy: 0.5556 - loss: 7.5482
Epoch 7/10
[1m1/1[0m [32mâ”â”â”â”â”â”â”â”â”â”â”â”â”â”â”â”â”â”â”â”[0m[37m[0m [1m0s[0m 25ms/step - accuracy: 0.5556 - loss: 7.4898[1m1/1[0m [32mâ”â”â”â”â”â”â”â”â”â”â”â”â”â”â”â”â”â”â”â”[0m[37m[0m [1m0s[0m 26ms/step - accuracy: 0.5556 - loss: 7.4898
Epoch 8/10
[1m1/1[0m [32mâ”â”â”â”â”â”â”â”â”â”â”â”â”â”â”â”â”â”â”â”[0m[37m[0m [1m0s[0m 23ms/step - accuracy: 0.5556 - loss: 7.4367[1m1/1[0m [32mâ”â”â”â”â”â”â”â”â”â”â”â”â”â”â”â”â”â”â”â”[0m[37m[0m [1m0s[0m 25ms/step - accuracy: 0.5556 - loss: 7.4367
Epoch 9/10
[1m1/1[0m [32mâ”â”â”â”â”â”â”â”â”â”â”â”â”â”â”â”â”â”â”â”[0m[37m[0m [1m0s[0m 24ms/step - accuracy: 0.5556 - loss: 7.4002[1m1/1[0m [32mâ”â”â”â”â”â”â”â”â”â”â”â”â”â”â”â”â”â”â”â”[0m[37m[0m [1m0s[0m 27ms/step - accuracy: 0.5556 - loss: 7.4002
Epoch 10/10
[1m1/1[0m [32mâ”â”â”â”â”â”â”â”â”â”â”â”â”â”â”â”â”â”â”â”[0m[37m[0m [1m0s[0m 23ms/step - accuracy: 0.5556 - loss: 7.3783[1m1/1[0m [32mâ”â”â”â”â”â”â”â”â”â”â”â”â”â”â”â”â”â”â”â”[0m[37m[0m [1m0s[0m 25ms/step - accuracy: 0.5556 - loss: 7.3783
mnist - Training average accuracy over 1 experiments with 9 training points : 1.0
no warm start
Gurobi Optimizer version 11.0.2 build v11.0.2rc0 (linux64 - "Ubuntu 22.04.4 LTS")

CPU model: Intel(R) Core(TM) i7-8700 CPU @ 3.20GHz, instruction set [SSE2|AVX|AVX2]
Thread count: 6 physical cores, 12 logical processors, using up to 12 threads

Optimize a model with 2520 rows, 27082 columns and 67256 nonzeros
Model fingerprint: 0x876e603f
Model has 240 quadratic constraints
Variable types: 26578 continuous, 504 integer (504 binary)
Coefficient statistics:
  Matrix range     [4e-03, 3e+04]
  QMatrix range    [1e+00, 1e+00]
  QLMatrix range   [1e+00, 2e+00]
  Objective range  [1e+00, 1e+00]
  Bounds range     [1e+00, 1e+00]
  RHS range        [8e+02, 3e+04]
  QRHS range       [1e+00, 1e+00]
Presolve removed 624 rows and 14432 columns
Presolve time: 0.20s
Presolved: 17496 rows, 16610 columns, 106752 nonzeros
Presolved model has 120 quadratic constraint(s)
Presolved model has 3840 bilinear constraint(s)

Solving non-convex MIQCP

Variable types: 16106 continuous, 504 integer (504 binary)
Found heuristic solution: objective 120.0000000
Deterministic concurrent LP optimizer: primal and dual simplex
Showing primal log only...

Concurrent spin time: 0.00s

Solved with primal simplex

Use crossover to convert LP symmetric solution to basic solution...

Root relaxation: objective 1.080000e+02, 892 iterations, 0.16 seconds (0.08 work units)

    Nodes    |    Current Node    |     Objective Bounds      |     Work
 Expl Unexpl |  Obj  Depth IntInf | Incumbent    BestBd   Gap | It/Node Time

     0     0  108.00000    0   12  120.00000  108.00000  10.0%     -    0s
H    0     0                     119.0000001  108.00000  9.24%     -   20s
H    0     0                     114.0000001  108.00000  5.26%     -   20s
H    0     0                     113.0000000  108.00000  4.42%     -   20s
H    0     0                     112.0000002  108.00000  3.57%     -   20s
H    0     0                     112.0000000  108.00000  3.57%     -   20s
     0     0  108.00000    0 2812  112.00000  108.00000  3.57%     -   20s
H    0     0                     111.0000000  108.00000  2.70%     -   20s
H    0     0                     110.0000002  108.00000  1.82%     -   21s
     0     0  108.00000    0 2715  110.00000  108.00000  1.82%     -   21s
     0     0  108.00000    0 2715  110.00000  108.00000  1.82%     -   21s
     0     0  108.00000    0 2715  110.00000  108.00000  1.82%     -   22s
     0     0  108.00000    0 2715  110.00000  108.00000  1.82%     -   22s
     0     0  108.00000    0 2715  110.00000  108.00000  1.82%     -   22s
     0     0  108.00000    0 2715  110.00000  108.00000  1.82%     -   23s
     0     0  108.00000    0 2715  110.00000  108.00000  1.82%     -   23s
     0     2  108.00000    0 2715  110.00000  108.00000  1.82%     -   87s
H    3     8                     108.4215147  108.00000  0.39%   302   99s
     7    14  108.00000    3 2623  108.42151  108.00000  0.39%   340  100s
H   31    38                     108.0000041  108.00000  0.00%   131  101s
H   35    38                     108.0000001  108.00000  0.00%   127  101s

Cutting planes:
  Gomory: 19
  MIR: 1
  Flow cover: 16
  RLT: 5

Explored 37 nodes (36247 simplex iterations) in 101.11 seconds (66.73 work units)
Thread count was 12 (of 12 available processors)

Solution count 10: 108 108 108.422 ... 120

Optimal solution found (tolerance 1.00e-04)
Best objective 1.080000001193e+02, best bound 1.080000000000e+02, gap 0.0000%
Epoch 1/10
[1m1/1[0m [32mâ”â”â”â”â”â”â”â”â”â”â”â”â”â”â”â”â”â”â”â”[0m[37m[0m [1m0s[0m 1s/step - accuracy: 0.1667 - loss: 7.8386[1m1/1[0m [32mâ”â”â”â”â”â”â”â”â”â”â”â”â”â”â”â”â”â”â”â”[0m[37m[0m [1m1s[0m 1s/step - accuracy: 0.1667 - loss: 7.8386
Epoch 2/10
[1m1/1[0m [32mâ”â”â”â”â”â”â”â”â”â”â”â”â”â”â”â”â”â”â”â”[0m[37m[0m [1m0s[0m 28ms/step - accuracy: 0.1667 - loss: 6.4068[1m1/1[0m [32mâ”â”â”â”â”â”â”â”â”â”â”â”â”â”â”â”â”â”â”â”[0m[37m[0m [1m0s[0m 30ms/step - accuracy: 0.1667 - loss: 6.4068
Epoch 3/10
[1m1/1[0m [32mâ”â”â”â”â”â”â”â”â”â”â”â”â”â”â”â”â”â”â”â”[0m[37m[0m [1m0s[0m 24ms/step - accuracy: 0.1667 - loss: 6.2275[1m1/1[0m [32mâ”â”â”â”â”â”â”â”â”â”â”â”â”â”â”â”â”â”â”â”[0m[37m[0m [1m0s[0m 26ms/step - accuracy: 0.1667 - loss: 6.2275
Epoch 4/10
[1m1/1[0m [32mâ”â”â”â”â”â”â”â”â”â”â”â”â”â”â”â”â”â”â”â”[0m[37m[0m [1m0s[0m 24ms/step - accuracy: 0.3333 - loss: 6.1373[1m1/1[0m [32mâ”â”â”â”â”â”â”â”â”â”â”â”â”â”â”â”â”â”â”â”[0m[37m[0m [1m0s[0m 26ms/step - accuracy: 0.3333 - loss: 6.1373
Epoch 5/10
[1m1/1[0m [32mâ”â”â”â”â”â”â”â”â”â”â”â”â”â”â”â”â”â”â”â”[0m[37m[0m [1m0s[0m 24ms/step - accuracy: 0.5000 - loss: 6.0678[1m1/1[0m [32mâ”â”â”â”â”â”â”â”â”â”â”â”â”â”â”â”â”â”â”â”[0m[37m[0m [1m0s[0m 26ms/step - accuracy: 0.5000 - loss: 6.0678
Epoch 6/10
[1m1/1[0m [32mâ”â”â”â”â”â”â”â”â”â”â”â”â”â”â”â”â”â”â”â”[0m[37m[0m [1m0s[0m 23ms/step - accuracy: 0.5000 - loss: 6.0047[1m1/1[0m [32mâ”â”â”â”â”â”â”â”â”â”â”â”â”â”â”â”â”â”â”â”[0m[37m[0m [1m0s[0m 25ms/step - accuracy: 0.5000 - loss: 6.0047
Epoch 7/10
[1m1/1[0m [32mâ”â”â”â”â”â”â”â”â”â”â”â”â”â”â”â”â”â”â”â”[0m[37m[0m [1m0s[0m 19ms/step - accuracy: 0.5833 - loss: 5.9391[1m1/1[0m [32mâ”â”â”â”â”â”â”â”â”â”â”â”â”â”â”â”â”â”â”â”[0m[37m[0m [1m0s[0m 21ms/step - accuracy: 0.5833 - loss: 5.9391
Epoch 8/10
[1m1/1[0m [32mâ”â”â”â”â”â”â”â”â”â”â”â”â”â”â”â”â”â”â”â”[0m[37m[0m [1m0s[0m 24ms/step - accuracy: 0.5833 - loss: 5.8736[1m1/1[0m [32mâ”â”â”â”â”â”â”â”â”â”â”â”â”â”â”â”â”â”â”â”[0m[37m[0m [1m0s[0m 26ms/step - accuracy: 0.5833 - loss: 5.8736
Epoch 9/10
[1m1/1[0m [32mâ”â”â”â”â”â”â”â”â”â”â”â”â”â”â”â”â”â”â”â”[0m[37m[0m [1m0s[0m 23ms/step - accuracy: 0.5833 - loss: 5.8137[1m1/1[0m [32mâ”â”â”â”â”â”â”â”â”â”â”â”â”â”â”â”â”â”â”â”[0m[37m[0m [1m0s[0m 25ms/step - accuracy: 0.5833 - loss: 5.8137
Epoch 10/10
[1m1/1[0m [32mâ”â”â”â”â”â”â”â”â”â”â”â”â”â”â”â”â”â”â”â”[0m[37m[0m [1m0s[0m 22ms/step - accuracy: 0.5833 - loss: 5.7763[1m1/1[0m [32mâ”â”â”â”â”â”â”â”â”â”â”â”â”â”â”â”â”â”â”â”[0m[37m[0m [1m0s[0m 24ms/step - accuracy: 0.5833 - loss: 5.7763
mnist - Training average accuracy over 1 experiments with 12 training points : 1.0
no warm start
Gurobi Optimizer version 11.0.2 build v11.0.2rc0 (linux64 - "Ubuntu 22.04.4 LTS")

CPU model: Intel(R) Core(TM) i7-8700 CPU @ 3.20GHz, instruction set [SSE2|AVX|AVX2]
Thread count: 6 physical cores, 12 logical processors, using up to 12 threads

Optimize a model with 3150 rows, 27490 columns and 87750 nonzeros
Model fingerprint: 0x89aa304f
Model has 300 quadratic constraints
Variable types: 26860 continuous, 630 integer (630 binary)
Coefficient statistics:
  Matrix range     [4e-03, 3e+04]
  QMatrix range    [1e+00, 1e+00]
  QLMatrix range   [1e+00, 2e+00]
  Objective range  [1e+00, 1e+00]
  Bounds range     [1e+00, 1e+00]
  RHS range        [8e+02, 3e+04]
  QRHS range       [1e+00, 1e+00]
Presolve removed 780 rows and 13216 columns
Presolve time: 0.24s
Presolved: 21870 rows, 19224 columns, 138504 nonzeros
Presolved model has 150 quadratic constraint(s)
Presolved model has 4800 bilinear constraint(s)

Solving non-convex MIQCP

Variable types: 18594 continuous, 630 integer (630 binary)
Found heuristic solution: objective 150.0000000
Deterministic concurrent LP optimizer: primal and dual simplex
Showing primal log only...

Concurrent spin time: 0.00s

Solved with primal simplex

Use crossover to convert LP symmetric solution to basic solution...

Root relaxation: objective 1.350000e+02, 712 iterations, 0.19 seconds (0.10 work units)

    Nodes    |    Current Node    |     Objective Bounds      |     Work
 Expl Unexpl |  Obj  Depth IntInf | Incumbent    BestBd   Gap | It/Node Time

     0     0  135.00000    0   15  150.00000  135.00000  10.0%     -    0s
H    0     0                     149.0000001  135.00000  9.40%     -   40s
H    0     0                     149.0000000  135.00000  9.40%     -   40s
H    0     0                     146.0000000  135.00000  7.53%     -   40s
H    0     0                     143.0000000  135.00000  5.59%     -   40s
H    0     0                     142.0000000  135.00000  4.93%     -   40s
H    0     0                     141.0000000  135.00000  4.26%     -   40s
H    0     0                     140.0000004  135.00000  3.57%     -   40s
H    0     0                     140.0000000  135.00000  3.57%     -   40s
H    0     0                     139.0000000  135.00000  2.88%     -   40s
H    0     0                     138.0000004  135.00000  2.17%     -   40s
     0     0  135.00000    0 3421  138.00000  135.00000  2.17%     -   40s
     0     0  135.00000    0 3465  138.00000  135.00000  2.17%     -   42s
H    0     0                     138.0000002  135.00000  2.17%     -   42s
     0     0  135.00000    0 3465  138.00000  135.00000  2.17%     -   42s
     0     0  135.00000    0 3465  138.00000  135.00000  2.17%     -   43s
     0     0  135.00000    0 3465  138.00000  135.00000  2.17%     -   43s
     0     0  135.00000    0 3465  138.00000  135.00000  2.17%     -   44s
     0     0  135.00000    0 3465  138.00000  135.00000  2.17%     -   44s
     0     0  135.00000    0 3465  138.00000  135.00000  2.17%     -   44s
     0     2  135.00000    0 3465  138.00000  135.00000  2.17%     -   90s
H   31    38                     135.0194059  135.00000  0.01%   246   92s
H  113   117                     135.0000012  135.00000  0.00%   161   94s

Cutting planes:
  Gomory: 16
  MIR: 4
  Flow cover: 18
  RLT: 3

Explored 116 nodes (63273 simplex iterations) in 94.24 seconds (94.83 work units)
Thread count was 12 (of 12 available processors)

Solution count 10: 135 135.019 138 ... 149

Optimal solution found (tolerance 1.00e-04)
Best objective 1.350000012431e+02, best bound 1.350000000000e+02, gap 0.0000%
Epoch 1/10
[1m1/1[0m [32mâ”â”â”â”â”â”â”â”â”â”â”â”â”â”â”â”â”â”â”â”[0m[37m[0m [1m0s[0m 494ms/step - accuracy: 0.0000e+00 - loss: 9.5927[1m1/1[0m [32mâ”â”â”â”â”â”â”â”â”â”â”â”â”â”â”â”â”â”â”â”[0m[37m[0m [1m0s[0m 496ms/step - accuracy: 0.0000e+00 - loss: 9.5927
Epoch 2/10
[1m1/1[0m [32mâ”â”â”â”â”â”â”â”â”â”â”â”â”â”â”â”â”â”â”â”[0m[37m[0m [1m0s[0m 14ms/step - accuracy: 0.1333 - loss: 9.2166[1m1/1[0m [32mâ”â”â”â”â”â”â”â”â”â”â”â”â”â”â”â”â”â”â”â”[0m[37m[0m [1m0s[0m 15ms/step - accuracy: 0.1333 - loss: 9.2166
Epoch 3/10
[1m1/1[0m [32mâ”â”â”â”â”â”â”â”â”â”â”â”â”â”â”â”â”â”â”â”[0m[37m[0m [1m0s[0m 13ms/step - accuracy: 0.3333 - loss: 9.0833[1m1/1[0m [32mâ”â”â”â”â”â”â”â”â”â”â”â”â”â”â”â”â”â”â”â”[0m[37m[0m [1m0s[0m 14ms/step - accuracy: 0.3333 - loss: 9.0833
Epoch 4/10
[1m1/1[0m [32mâ”â”â”â”â”â”â”â”â”â”â”â”â”â”â”â”â”â”â”â”[0m[37m[0m [1m0s[0m 12ms/step - accuracy: 0.3333 - loss: 8.9936[1m1/1[0m [32mâ”â”â”â”â”â”â”â”â”â”â”â”â”â”â”â”â”â”â”â”[0m[37m[0m [1m0s[0m 14ms/step - accuracy: 0.3333 - loss: 8.9936
Epoch 5/10
[1m1/1[0m [32mâ”â”â”â”â”â”â”â”â”â”â”â”â”â”â”â”â”â”â”â”[0m[37m[0m [1m0s[0m 14ms/step - accuracy: 0.3333 - loss: 8.0718[1m1/1[0m [32mâ”â”â”â”â”â”â”â”â”â”â”â”â”â”â”â”â”â”â”â”[0m[37m[0m [1m0s[0m 15ms/step - accuracy: 0.3333 - loss: 8.0718
Epoch 6/10
[1m1/1[0m [32mâ”â”â”â”â”â”â”â”â”â”â”â”â”â”â”â”â”â”â”â”[0m[37m[0m [1m0s[0m 12ms/step - accuracy: 0.4000 - loss: 7.8980[1m1/1[0m [32mâ”â”â”â”â”â”â”â”â”â”â”â”â”â”â”â”â”â”â”â”[0m[37m[0m [1m0s[0m 14ms/step - accuracy: 0.4000 - loss: 7.8980
Epoch 7/10
[1m1/1[0m [32mâ”â”â”â”â”â”â”â”â”â”â”â”â”â”â”â”â”â”â”â”[0m[37m[0m [1m0s[0m 13ms/step - accuracy: 0.4667 - loss: 7.8248[1m1/1[0m [32mâ”â”â”â”â”â”â”â”â”â”â”â”â”â”â”â”â”â”â”â”[0m[37m[0m [1m0s[0m 14ms/step - accuracy: 0.4667 - loss: 7.8248
Epoch 8/10
[1m1/1[0m [32mâ”â”â”â”â”â”â”â”â”â”â”â”â”â”â”â”â”â”â”â”[0m[37m[0m [1m0s[0m 12ms/step - accuracy: 0.4667 - loss: 7.7728[1m1/1[0m [32mâ”â”â”â”â”â”â”â”â”â”â”â”â”â”â”â”â”â”â”â”[0m[37m[0m [1m0s[0m 13ms/step - accuracy: 0.4667 - loss: 7.7728
Epoch 9/10
[1m1/1[0m [32mâ”â”â”â”â”â”â”â”â”â”â”â”â”â”â”â”â”â”â”â”[0m[37m[0m [1m0s[0m 12ms/step - accuracy: 0.5333 - loss: 7.7298[1m1/1[0m [32mâ”â”â”â”â”â”â”â”â”â”â”â”â”â”â”â”â”â”â”â”[0m[37m[0m [1m0s[0m 13ms/step - accuracy: 0.5333 - loss: 7.7298
Epoch 10/10
[1m1/1[0m [32mâ”â”â”â”â”â”â”â”â”â”â”â”â”â”â”â”â”â”â”â”[0m[37m[0m [1m0s[0m 12ms/step - accuracy: 0.5333 - loss: 7.6917[1m1/1[0m [32mâ”â”â”â”â”â”â”â”â”â”â”â”â”â”â”â”â”â”â”â”[0m[37m[0m [1m0s[0m 14ms/step - accuracy: 0.5333 - loss: 7.6917
mnist - Training average accuracy over 1 experiments with 15 training points : 1.0
no warm start
Gurobi Optimizer version 11.0.2 build v11.0.2rc0 (linux64 - "Ubuntu 22.04.4 LTS")

CPU model: Intel(R) Core(TM) i7-8700 CPU @ 3.20GHz, instruction set [SSE2|AVX|AVX2]
Thread count: 6 physical cores, 12 logical processors, using up to 12 threads

Optimize a model with 3780 rows, 27898 columns and 105524 nonzeros
Model fingerprint: 0x72ef5233
Model has 360 quadratic constraints
Variable types: 27142 continuous, 756 integer (756 binary)
Coefficient statistics:
  Matrix range     [4e-03, 3e+04]
  QMatrix range    [1e+00, 1e+00]
  QLMatrix range   [1e+00, 2e+00]
  Objective range  [1e+00, 1e+00]
  Bounds range     [1e+00, 1e+00]
  RHS range        [8e+02, 3e+04]
  QRHS range       [1e+00, 1e+00]
Presolve removed 936 rows and 12736 columns
Presolve time: 0.12s
Presolved: 26244 rows, 21102 columns, 167120 nonzeros
Presolved model has 180 quadratic constraint(s)
Presolved model has 5760 bilinear constraint(s)

Solving non-convex MIQCP

Variable types: 20346 continuous, 756 integer (756 binary)
Found heuristic solution: objective 180.0000000
Deterministic concurrent LP optimizer: primal and dual simplex
Showing primal log only...

Concurrent spin time: 0.00s

Solved with primal simplex

Use crossover to convert LP symmetric solution to basic solution...

Root relaxation: objective 1.620000e+02, 678 iterations, 0.10 seconds (0.12 work units)

    Nodes    |    Current Node    |     Objective Bounds      |     Work
 Expl Unexpl |  Obj  Depth IntInf | Incumbent    BestBd   Gap | It/Node Time

     0     0  162.00000    0   24  180.00000  162.00000  10.0%     -    1s
H    0     0                     179.0000002  162.00000  9.50%     -   30s
H    0     0                     178.5000000  162.00000  9.24%     -   30s
H    0     0                     178.0000000  162.00000  8.99%     -   30s
H    0     0                     177.9466586  162.00000  8.96%     -   30s
H    0     0                     177.8071553  162.00000  8.89%     -   30s
H    0     0                     176.0000000  162.00000  7.95%     -   30s
H    0     0                     175.0000000  162.00000  7.43%     -   30s
H    0     0                     171.8994633  162.00000  5.76%     -   30s
H    0     0                     170.8994633  162.00000  5.21%     -   30s
     0     0  162.00000    0 4691  170.89946  162.00000  5.21%     -   30s
H    0     0                     164.0625141  162.00000  1.26%     -   31s
H    0     0                     164.0625141  162.00000  1.26%     -   31s
     0     0  162.00000    0 4122  164.06251  162.00000  1.26%     -   31s
     0     0  162.00000    0 4122  164.06251  162.00000  1.26%     -   32s
     0     0  162.00000    0 4122  164.06251  162.00000  1.26%     -   32s
H    0     0                     163.0625142  162.00000  0.65%     -   32s
     0     0  162.00000    0 4122  163.06251  162.00000  0.65%     -   32s
H    0     0                     163.0625141  162.00000  0.65%     -   33s
     0     0  162.00000    0 4122  163.06251  162.00000  0.65%     -   33s
     0     0  162.00000    0 4122  163.06251  162.00000  0.65%     -   33s
     0     2  162.00000    0 4122  163.06251  162.00000  0.65%     -   80s
     3     8  162.00000    2 4102  163.06251  162.00000  0.65%   621   85s
H   32    38                     162.2985771  162.00000  0.18%   479   86s
    54    78  162.00000   11 4077  162.29858  162.00000  0.18%   375   96s
H   77   158                     162.2593362  162.00000  0.16%   830   99s
H  142   158                     162.2323311  162.00000  0.14%   522   99s
H  155   158                     162.0000000  162.00000  0.00%   494   99s

Cutting planes:
  MIR: 1
  Flow cover: 20
  RLT: 9

Explored 157 nodes (144784 simplex iterations) in 99.72 seconds (149.32 work units)
Thread count was 12 (of 12 available processors)

Solution count 10: 162 162.232 162.259 ... 171.899

Optimal solution found (tolerance 1.00e-04)
Best objective 1.620000000000e+02, best bound 1.620000000000e+02, gap 0.0000%
Epoch 1/10
[1m1/1[0m [32mâ”â”â”â”â”â”â”â”â”â”â”â”â”â”â”â”â”â”â”â”[0m[37m[0m [1m0s[0m 422ms/step - accuracy: 0.1111 - loss: 10.6222[1m1/1[0m [32mâ”â”â”â”â”â”â”â”â”â”â”â”â”â”â”â”â”â”â”â”[0m[37m[0m [1m0s[0m 423ms/step - accuracy: 0.1111 - loss: 10.6222
Epoch 2/10
[1m1/1[0m [32mâ”â”â”â”â”â”â”â”â”â”â”â”â”â”â”â”â”â”â”â”[0m[37m[0m [1m0s[0m 11ms/step - accuracy: 0.1667 - loss: 9.6455[1m1/1[0m [32mâ”â”â”â”â”â”â”â”â”â”â”â”â”â”â”â”â”â”â”â”[0m[37m[0m [1m0s[0m 12ms/step - accuracy: 0.1667 - loss: 9.6455
Epoch 3/10
[1m1/1[0m [32mâ”â”â”â”â”â”â”â”â”â”â”â”â”â”â”â”â”â”â”â”[0m[37m[0m [1m0s[0m 11ms/step - accuracy: 0.1667 - loss: 8.2252[1m1/1[0m [32mâ”â”â”â”â”â”â”â”â”â”â”â”â”â”â”â”â”â”â”â”[0m[37m[0m [1m0s[0m 12ms/step - accuracy: 0.1667 - loss: 8.2252
Epoch 4/10
[1m1/1[0m [32mâ”â”â”â”â”â”â”â”â”â”â”â”â”â”â”â”â”â”â”â”[0m[37m[0m [1m0s[0m 11ms/step - accuracy: 0.2222 - loss: 7.9386[1m1/1[0m [32mâ”â”â”â”â”â”â”â”â”â”â”â”â”â”â”â”â”â”â”â”[0m[37m[0m [1m0s[0m 12ms/step - accuracy: 0.2222 - loss: 7.9386
Epoch 5/10
[1m1/1[0m [32mâ”â”â”â”â”â”â”â”â”â”â”â”â”â”â”â”â”â”â”â”[0m[37m[0m [1m0s[0m 11ms/step - accuracy: 0.2222 - loss: 7.8569[1m1/1[0m [32mâ”â”â”â”â”â”â”â”â”â”â”â”â”â”â”â”â”â”â”â”[0m[37m[0m [1m0s[0m 12ms/step - accuracy: 0.2222 - loss: 7.8569
Epoch 6/10
[1m1/1[0m [32mâ”â”â”â”â”â”â”â”â”â”â”â”â”â”â”â”â”â”â”â”[0m[37m[0m [1m0s[0m 11ms/step - accuracy: 0.3333 - loss: 7.8034[1m1/1[0m [32mâ”â”â”â”â”â”â”â”â”â”â”â”â”â”â”â”â”â”â”â”[0m[37m[0m [1m0s[0m 12ms/step - accuracy: 0.3333 - loss: 7.8034
Epoch 7/10
[1m1/1[0m [32mâ”â”â”â”â”â”â”â”â”â”â”â”â”â”â”â”â”â”â”â”[0m[37m[0m [1m0s[0m 11ms/step - accuracy: 0.3889 - loss: 7.7563[1m1/1[0m [32mâ”â”â”â”â”â”â”â”â”â”â”â”â”â”â”â”â”â”â”â”[0m[37m[0m [1m0s[0m 12ms/step - accuracy: 0.3889 - loss: 7.7563
Epoch 8/10
[1m1/1[0m [32mâ”â”â”â”â”â”â”â”â”â”â”â”â”â”â”â”â”â”â”â”[0m[37m[0m [1m0s[0m 11ms/step - accuracy: 0.3889 - loss: 7.7146[1m1/1[0m [32mâ”â”â”â”â”â”â”â”â”â”â”â”â”â”â”â”â”â”â”â”[0m[37m[0m [1m0s[0m 12ms/step - accuracy: 0.3889 - loss: 7.7146
Epoch 9/10
[1m1/1[0m [32mâ”â”â”â”â”â”â”â”â”â”â”â”â”â”â”â”â”â”â”â”[0m[37m[0m [1m0s[0m 11ms/step - accuracy: 0.4444 - loss: 7.6756[1m1/1[0m [32mâ”â”â”â”â”â”â”â”â”â”â”â”â”â”â”â”â”â”â”â”[0m[37m[0m [1m0s[0m 12ms/step - accuracy: 0.4444 - loss: 7.6756
Epoch 10/10
[1m1/1[0m [32mâ”â”â”â”â”â”â”â”â”â”â”â”â”â”â”â”â”â”â”â”[0m[37m[0m [1m0s[0m 11ms/step - accuracy: 0.5000 - loss: 7.6370[1m1/1[0m [32mâ”â”â”â”â”â”â”â”â”â”â”â”â”â”â”â”â”â”â”â”[0m[37m[0m [1m0s[0m 12ms/step - accuracy: 0.5000 - loss: 7.6370
